% File represents an instance of a Composite Structure problem to be solved by a CP framework
% Created on 2025-03-26 10:41:20.036
T = 58;
n = 9;
m = 12;
edges = [(2, 1),
(5, 4),
(8, 7),
(3, 2),
(6, 5),
(8, 9),
(1, 4),
(7, 4),
(5, 2),
(8, 5),
(6, 3),
(6, 9)];
counts = [|6, 18, 6, 20,
|6, 20, 6, 20,
|8, 20, 8, 20,
|6, 16, 6, 20,
|6, 20, 6, 22,
|8, 20, 8, 22,
|6, 20, 6, 22,
|8, 20, 8, 22,
|8, 20, 8, 20|];
